p edge 64 704
n 1 54
n 2 62
n 3 39
n 4 40
n 5 25
n 6 43
n 7 30
n 8 63
n 9 12
n 10 38
n 11 61
n 12 44
n 13 58
n 14 16
n 15 24
n 16 60
n 17 2
n 18 42
n 19 19
n 20 45
n 21 14
n 22 3
n 23 8
n 24 65
n 25 27
n 26 56
n 27 52
n 28 5
n 29 17
n 30 47
n 31 15
n 32 18
n 33 10
n 34 34
n 35 32
n 36 50
n 37 53
n 38 11
n 39 21
n 40 6
n 41 59
n 42 64
n 43 41
n 44 31
n 45 36
n 46 49
n 47 37
n 48 23
n 49 48
n 50 51
n 51 26
n 52 35
n 53 57
n 54 9
n 55 7
n 56 4
n 57 22
n 58 13
n 59 55
n 60 33
n 61 29
n 62 46
n 63 28
n 64 20
e 1 6
e 1 9
e 1 11
e 1 12
e 1 14
e 1 20
e 1 22
e 1 25
e 1 28
e 1 29
e 1 31
e 1 33
e 1 38
e 1 39
e 1 46
e 1 47
e 1 54
e 1 56
e 1 58
e 1 60
e 1 61
e 1 63
e 2 5
e 2 9
e 2 17
e 2 19
e 2 20
e 2 22
e 2 23
e 2 28
e 2 29
e 2 37
e 2 38
e 2 39
e 2 43
e 2 45
e 2 47
e 2 52
e 2 54
e 2 55
e 2 56
e 2 58
e 2 61
e 2 64
e 3 7
e 3 9
e 3 11
e 3 12
e 3 13
e 3 14
e 3 15
e 3 16
e 3 25
e 3 27
e 3 32
e 3 33
e 3 35
e 3 39
e 3 42
e 3 51
e 3 56
e 3 58
e 3 60
e 3 61
e 3 63
e 3 64
e 4 6
e 4 7
e 4 8
e 4 11
e 4 13
e 4 19
e 4 22
e 4 25
e 4 31
e 4 32
e 4 33
e 4 38
e 4 39
e 4 41
e 4 44
e 4 48
e 4 50
e 4 51
e 4 58
e 4 60
e 4 61
e 4 63
e 5 6
e 5 9
e 5 10
e 5 12
e 5 13
e 5 16
e 5 17
e 5 18
e 5 20
e 5 21
e 5 30
e 5 33
e 5 34
e 5 36
e 5 38
e 5 41
e 5 45
e 5 49
e 5 51
e 5 52
e 5 62
e 6 7
e 6 14
e 6 15
e 6 23
e 6 26
e 6 27
e 6 32
e 6 35
e 6 39
e 6 40
e 6 42
e 6 48
e 6 53
e 6 54
e 6 56
e 6 57
e 6 60
e 6 63
e 6 64
e 7 11
e 7 12
e 7 20
e 7 22
e 7 27
e 7 28
e 7 34
e 7 37
e 7 39
e 7 43
e 7 45
e 7 46
e 7 47
e 7 50
e 7 52
e 7 53
e 7 54
e 7 56
e 7 58
e 8 9
e 8 12
e 8 14
e 8 15
e 8 17
e 8 22
e 8 23
e 8 27
e 8 28
e 8 32
e 8 33
e 8 34
e 8 39
e 8 40
e 8 45
e 8 47
e 8 54
e 8 56
e 8 58
e 8 63
e 8 64
e 9 10
e 9 19
e 9 24
e 9 26
e 9 30
e 9 36
e 9 37
e 9 41
e 9 43
e 9 44
e 9 48
e 9 50
e 9 52
e 9 53
e 9 55
e 9 57
e 9 59
e 10 11
e 10 16
e 10 19
e 10 20
e 10 24
e 10 25
e 10 28
e 10 29
e 10 35
e 10 37
e 10 38
e 10 39
e 10 41
e 10 44
e 10 51
e 10 58
e 10 60
e 10 61
e 10 63
e 10 64
e 11 14
e 11 15
e 11 17
e 11 21
e 11 22
e 11 23
e 11 31
e 11 32
e 11 33
e 11 34
e 11 40
e 11 48
e 11 54
e 11 55
e 11 56
e 11 57
e 11 62
e 12 15
e 12 19
e 12 22
e 12 25
e 12 31
e 12 32
e 12 39
e 12 40
e 12 44
e 12 48
e 12 50
e 12 53
e 12 54
e 12 55
e 12 57
e 12 59
e 12 60
e 13 14
e 13 15
e 13 22
e 13 23
e 13 28
e 13 29
e 13 31
e 13 39
e 13 40
e 13 43
e 13 46
e 13 47
e 13 48
e 13 53
e 13 54
e 13 55
e 13 56
e 13 58
e 13 60
e 14 19
e 14 22
e 14 25
e 14 27
e 14 32
e 14 34
e 14 36
e 14 37
e 14 39
e 14 41
e 14 47
e 14 48
e 14 50
e 14 52
e 14 53
e 14 59
e 15 18
e 15 20
e 15 22
e 15 25
e 15 30
e 15 31
e 15 33
e 15 34
e 15 38
e 15 41
e 15 46
e 15 47
e 15 50
e 15 52
e 15 58
e 15 62
e 16 17
e 16 19
e 16 21
e 16 22
e 16 23
e 16 28
e 16 29
e 16 30
e 16 31
e 16 38
e 16 40
e 16 43
e 16 44
e 16 48
e 16 52
e 16 54
e 16 55
e 16 57
e 16 59
e 17 20
e 17 24
e 17 26
e 17 29
e 17 30
e 17 35
e 17 37
e 17 41
e 17 42
e 17 43
e 17 44
e 17 46
e 17 49
e 17 53
e 17 59
e 17 60
e 17 61
e 18 19
e 18 23
e 18 24
e 18 26
e 18 28
e 18 29
e 18 35
e 18 37
e 18 39
e 18 43
e 18 44
e 18 48
e 18 53
e 18 54
e 18 55
e 18 57
e 18 59
e 18 60
e 18 61
e 18 64
e 19 20
e 19 21
e 19 23
e 19 24
e 19 26
e 19 29
e 19 30
e 19 35
e 19 42
e 19 43
e 19 45
e 19 46
e 19 49
e 19 62
e 20 21
e 20 23
e 20 26
e 20 32
e 20 35
e 20 36
e 20 40
e 20 44
e 20 48
e 20 51
e 20 55
e 20 57
e 20 59
e 20 64
e 21 24
e 21 26
e 21 27
e 21 28
e 21 36
e 21 37
e 21 39
e 21 41
e 21 43
e 21 45
e 21 47
e 21 50
e 21 52
e 21 53
e 21 59
e 21 61
e 21 64
e 22 24
e 22 26
e 22 27
e 22 35
e 22 42
e 22 46
e 22 49
e 22 53
e 22 60
e 22 62
e 22 63
e 23 24
e 23 25
e 23 30
e 23 36
e 23 37
e 23 38
e 23 41
e 23 44
e 23 50
e 23 51
e 23 52
e 23 59
e 23 61
e 24 28
e 24 32
e 24 33
e 24 34
e 24 36
e 24 38
e 24 40
e 24 45
e 24 51
e 24 52
e 24 55
e 24 56
e 24 57
e 24 64
e 25 26
e 25 27
e 25 34
e 25 40
e 25 42
e 25 43
e 25 45
e 25 46
e 25 47
e 25 49
e 25 53
e 25 54
e 25 56
e 25 62
e 26 28
e 26 29
e 26 30
e 26 31
e 26 33
e 26 38
e 26 41
e 26 44
e 26 51
e 26 52
e 26 55
e 26 58
e 26 61
e 27 29
e 27 30
e 27 31
e 27 33
e 27 38
e 27 40
e 27 44
e 27 46
e 27 48
e 27 54
e 27 55
e 27 58
e 27 60
e 27 62
e 28 30
e 28 35
e 28 36
e 28 41
e 28 42
e 28 44
e 28 49
e 28 51
e 28 57
e 28 59
e 28 62
e 29 32
e 29 34
e 29 36
e 29 37
e 29 41
e 29 45
e 29 50
e 29 51
e 29 52
e 29 57
e 29 59
e 29 64
e 30 32
e 30 35
e 30 36
e 30 37
e 30 39
e 30 45
e 30 51
e 30 56
e 30 57
e 30 61
e 30 63
e 30 64
e 31 32
e 31 34
e 31 36
e 31 37
e 31 39
e 31 42
e 31 45
e 31 47
e 31 50
e 31 53
e 31 56
e 31 63
e 31 64
e 32 42
e 32 43
e 32 46
e 32 47
e 32 49
e 32 53
e 32 54
e 32 58
e 32 60
e 32 62
e 33 37
e 33 39
e 33 42
e 33 43
e 33 46
e 33 47
e 33 48
e 33 50
e 33 53
e 33 54
e 33 59
e 33 60
e 34 35
e 34 39
e 34 42
e 34 44
e 34 46
e 34 48
e 34 53
e 34 54
e 34 58
e 34 60
e 34 61
e 34 63
e 35 36
e 35 37
e 35 38
e 35 41
e 35 43
e 35 45
e 35 47
e 35 50
e 35 52
e 35 55
e 35 59
e 36 38
e 36 43
e 36 44
e 36 46
e 36 49
e 36 54
e 36 55
e 36 58
e 36 60
e 36 61
e 37 38
e 37 40
e 37 44
e 37 49
e 37 51
e 37 55
e 37 57
e 37 62
e 38 42
e 38 43
e 38 45
e 38 49
e 38 53
e 38 57
e 38 59
e 38 64
e 39 40
e 39 42
e 39 46
e 39 49
e 39 62
e 40 41
e 40 42
e 40 46
e 40 47
e 40 50
e 40 53
e 40 58
e 40 60
e 40 61
e 40 63
e 41 43
e 41 45
e 41 49
e 41 54
e 41 55
e 41 56
e 41 57
e 41 64
e 42 47
e 42 48
e 42 50
e 42 52
e 42 54
e 42 55
e 42 56
e 42 58
e 43 44
e 43 51
e 43 57
e 43 61
e 43 63
e 43 64
e 44 45
e 44 47
e 44 49
e 44 52
e 44 56
e 44 64
e 45 48
e 45 51
e 45 55
e 45 57
e 45 59
e 45 60
e 45 61
e 46 48
e 46 50
e 46 51
e 46 56
e 46 57
e 46 63
e 46 64
e 47 48
e 47 51
e 47 57
e 47 60
e 47 62
e 47 63
e 48 49
e 48 56
e 48 58
e 48 62
e 48 63
e 49 50
e 49 51
e 49 52
e 49 55
e 49 57
e 49 59
e 49 61
e 49 64
e 50 54
e 50 56
e 50 58
e 50 60
e 50 62
e 50 63
e 51 52
e 51 53
e 51 54
e 51 55
e 51 59
e 52 57
e 52 60
e 52 61
e 52 63
e 52 64
e 53 56
e 53 58
e 53 62
e 53 63
e 54 62
e 54 63
e 55 61
e 55 63
e 55 64
e 56 59
e 56 60
e 56 62
e 57 58
e 57 61
e 58 59
e 58 62
e 59 61
e 59 63
e 59 64
e 60 62
e 61 62
e 62 63
e 62 64
